n = 49;
rows = 133;
supports = [|
  {1},{1},
 |{1},8..43,
 |{2},{2},
 |{2},9..44,
 |{3},{3},
 |{3},10..45,
 |{4},{4},
 |{4},11..46,
 |{5},{5},
 |{5},12..47,
 |{6},{6},
 |{6},13..48,
 |{7},{7},
 |{7},14..49,
 |{8},{8},
 |{8},{1},
 |{8},15..49,
 |{9},{9},
 |{9},1..2,
 |{9},16..49,
 |{10},{10},
 |{10},1..3,
 |{10},17..49,
 |{11},{11},
 |{11},1..4,
 |{11},18..49,
 |{12},{12},
 |{12},1..5,
 |{12},19..49,
 |{13},{13},
 |{13},1..6,
 |{13},20..49,
 |{14},{14},
 |{14},1..7,
 |{14},21..49,
 |{15},{15},
 |{15},1..8,
 |{15},22..49,
 |{16},{16},
 |{16},1..9,
 |{16},23..49,
 |{17},{17},
 |{17},1..10,
 |{17},24..49,
 |{18},{18},
 |{18},1..11,
 |{18},25..49,
 |{19},{19},
 |{19},1..12,
 |{19},26..49,
 |{20},{20},
 |{20},1..13,
 |{20},27..49,
 |{21},{21},
 |{21},1..14,
 |{21},28..49,
 |{22},{22},
 |{22},1..15,
 |{22},29..49,
 |{23},{23},
 |{23},1..16,
 |{23},30..49,
 |{24},{24},
 |{24},1..17,
 |{24},31..49,
 |{25},{25},
 |{25},1..18,
 |{25},32..49,
 |{26},{26},
 |{26},1..19,
 |{26},33..49,
 |{27},{27},
 |{27},1..20,
 |{27},34..49,
 |{28},{28},
 |{28},1..21,
 |{28},35..49,
 |{29},{29},
 |{29},1..22,
 |{29},36..49,
 |{30},{30},
 |{30},1..23,
 |{30},37..49,
 |{31},{31},
 |{31},1..24,
 |{31},38..49,
 |{32},{32},
 |{32},1..25,
 |{32},39..49,
 |{33},{33},
 |{33},1..26,
 |{33},40..49,
 |{34},{34},
 |{34},1..27,
 |{34},41..49,
 |{35},{35},
 |{35},1..28,
 |{35},42..49,
 |{36},{36},
 |{36},1..29,
 |{36},43..49,
 |{37},{37},
 |{37},1..30,
 |{37},44..49,
 |{38},{38},
 |{38},1..31,
 |{38},45..49,
 |{39},{39},
 |{39},1..32,
 |{39},46..49,
 |{40},{40},
 |{40},1..33,
 |{40},47..49,
 |{41},{41},
 |{41},1..34,
 |{41},48..49,
 |{42},{42},
 |{42},1..35,
 |{42},{49},
 |{43},{43},
 |{43},1..36,
 |{44},{44},
 |{44},2..37,
 |{45},{45},
 |{45},3..38,
 |{46},{46},
 |{46},4..39,
 |{47},{47},
 |{47},5..40,
 |{48},{48},
 |{48},6..41,
 |{49},{49},
 |{49},7..42 |];

t = 59;

indexes = [|
    0,28,
  | 1,42,
  | 2,16,
  | 3,27,
  | 3,46,
  | 4,7,
  | 4,22,
  | 4,33,
  | 5,41,
  | 6,26,
  | 6,31,
  | 6,41,
  | 6,42,
  | 8,32,
  | 9,13,
  | 9,24,
  | 10,39,
  | 11,21,
  | 11,31,
  | 12,26,
  | 13,45,
  | 14,18,
  | 14,32,
  | 14,34,
  | 15,27,
  | 15,38,
  | 16,24,
  | 16,27,
  | 17,23,
  | 17,27,
  | 18,25,
  | 18,31,
  | 18,42,
  | 19,24,
  | 19,46,
  | 20,26,
  | 21,47,
  | 22,39,
  | 22,44,
  | 23,32,
  | 25,42,
  | 25,45,
  | 26,31,
  | 27,46,
  | 28,30,
  | 28,48,
  | 29,42,
  | 32,37,
  | 32,39,
  | 33,37,
  | 33,46,
  | 35,39,
  | 36,47,
  | 36,48,
  | 39,43,
  | 40,42,
  | 45,46,
  | 45,47,
  | 45,48 |];

